p cnf 200 1110
-101 66 0
-101 42 0
-101 34 0
-101 43 0
-101 85 0
-101 36 0
-101 -21 0
-101 -67 0
-101 -9 0
-101 -80 0
101 -66 -42 -34 -43 -85 -36 21 67 9 80 0
-102 17 0
-102 47 0
-102 88 0
-102 90 0
-102 5 0
-102 -92 0
-102 -25 0
-102 -26 0
-102 71 0
-102 -95 0
102 -17 -47 -88 -90 -5 92 25 26 -71 95 0
-103 -92 0
-103 -43 0
-103 -6 0
-103 -36 0
-103 27 0
-103 -76 0
-103 -90 0
-103 35 0
-103 13 0
-103 82 0
103 92 43 6 36 -27 76 90 -35 -13 -82 0
-104 -71 0
-104 -6 0
-104 66 0
-104 -43 0
-104 5 0
-104 20 0
-104 -75 0
-104 -92 0
-104 -40 0
-104 -96 0
104 71 6 -66 43 -5 -20 75 92 40 96 0
-105 -62 0
-105 95 0
-105 10 0
-105 23 0
-105 17 0
-105 49 0
-105 -20 0
-105 77 0
-105 6 0
-105 93 0
105 62 -95 -10 -23 -17 -49 20 -77 -6 -93 0
-106 56 0
-106 60 0
-106 -77 0
-106 27 0
-106 97 0
-106 -90 0
-106 53 0
-106 86 0
-106 -40 0
-106 -87 0
106 -56 -60 77 -27 -97 90 -53 -86 40 87 0
-107 88 0
-107 -70 0
-107 29 0
-107 -5 0
-107 99 0
-107 25 0
-107 3 0
-107 94 0
-107 47 0
-107 65 0
107 -88 70 -29 5 -99 -25 -3 -94 -47 -65 0
-108 -67 0
-108 96 0
-108 -37 0
-108 80 0
-108 14 0
-108 20 0
-108 6 0
-108 46 0
-108 93 0
-108 -70 0
108 67 -96 37 -80 -14 -20 -6 -46 -93 70 0
-109 -8 0
-109 -71 0
-109 -68 0
-109 34 0
-109 -79 0
-109 94 0
-109 -95 0
-109 -13 0
-109 -23 0
-109 -58 0
109 8 71 68 -34 79 -94 95 13 23 58 0
-110 -38 0
-110 4 0
-110 -44 0
-110 88 0
-110 46 0
-110 68 0
-110 81 0
-110 -94 0
-110 13 0
-110 -95 0
110 38 -4 44 -88 -46 -68 -81 94 -13 95 0
101 102 103 104 105 106 107 108 109 110 0
-111 40 0
-111 -35 0
-111 -22 0
-111 -24 0
-111 -96 0
-111 -77 0
-111 -58 0
-111 -51 0
-111 54 0
-111 -5 0
111 -40 35 22 24 96 77 58 51 -54 5 0
-112 -77 0
-112 -83 0
-112 -92 0
-112 51 0
-112 40 0
-112 -97 0
-112 -33 0
-112 -91 0
-112 -82 0
-112 66 0
112 77 83 92 -51 -40 97 33 91 82 -66 0
-113 -1 0
-113 51 0
-113 -15 0
-113 -38 0
-113 -78 0
-113 12 0
-113 43 0
-113 61 0
-113 -81 0
-113 -40 0
113 1 -51 15 38 78 -12 -43 -61 81 40 0
-114 -44 0
-114 76 0
-114 -47 0
-114 -65 0
-114 -83 0
-114 -36 0
-114 -88 0
-114 20 0
-114 -34 0
-114 -13 0
114 44 -76 47 65 83 36 88 -20 34 13 0
-115 2 0
-115 95 0
-115 -37 0
-115 -40 0
-115 82 0
-115 -67 0
-115 56 0
-115 52 0
-115 -50 0
-115 62 0
115 -2 -95 37 40 -82 67 -56 -52 50 -62 0
-116 -2 0
-116 76 0
-116 89 0
-116 81 0
-116 -60 0
-116 92 0
-116 -78 0
-116 -86 0
-116 74 0
-116 -35 0
116 2 -76 -89 -81 60 -92 78 86 -74 35 0
-117 4 0
-117 23 0
-117 -17 0
-117 59 0
-117 74 0
-117 -77 0
-117 7 0
-117 8 0
-117 40 0
-117 -2 0
117 -4 -23 17 -59 -74 77 -7 -8 -40 2 0
-118 -33 0
-118 -23 0
-118 -8 0
-118 94 0
-118 -4 0
-118 -84 0
-118 26 0
-118 45 0
-118 -19 0
-118 -39 0
118 33 23 8 -94 4 84 -26 -45 19 39 0
-119 -80 0
-119 -15 0
-119 81 0
-119 7 0
-119 -90 0
-119 -34 0
-119 -97 0
-119 -94 0
-119 -78 0
-119 83 0
119 80 15 -81 -7 90 34 97 94 78 -83 0
-120 -29 0
-120 70 0
-120 12 0
-120 61 0
-120 93 0
-120 14 0
-120 63 0
-120 27 0
-120 50 0
-120 -97 0
120 29 -70 -12 -61 -93 -14 -63 -27 -50 97 0
111 112 113 114 115 116 117 118 119 120 0
-121 88 0
-121 -27 0
-121 2 0
-121 20 0
-121 80 0
-121 17 0
-121 -25 0
-121 35 0
-121 6 0
-121 -77 0
121 -88 27 -2 -20 -80 -17 25 -35 -6 77 0
-122 -72 0
-122 -29 0
-122 8 0
-122 -15 0
-122 -93 0
-122 31 0
-122 -3 0
-122 86 0
-122 -83 0
-122 6 0
122 72 29 -8 15 93 -31 3 -86 83 -6 0
-123 78 0
-123 79 0
-123 95 0
-123 1 0
-123 -77 0
-123 31 0
-123 -20 0
-123 83 0
-123 43 0
-123 40 0
123 -78 -79 -95 -1 77 -31 20 -83 -43 -40 0
-124 -31 0
-124 -18 0
-124 -2 0
-124 -80 0
-124 -98 0
-124 -72 0
-124 35 0
-124 64 0
-124 -96 0
-124 -4 0
124 31 18 2 80 98 72 -35 -64 96 4 0
-125 -55 0
-125 -46 0
-125 -91 0
-125 81 0
-125 -54 0
-125 -63 0
-125 85 0
-125 62 0
-125 79 0
-125 -69 0
125 55 46 91 -81 54 63 -85 -62 -79 69 0
-126 -63 0
-126 48 0
-126 -90 0
-126 -81 0
-126 -40 0
-126 -47 0
-126 -12 0
-126 -53 0
-126 42 0
-126 -61 0
126 63 -48 90 81 40 47 12 53 -42 61 0
-127 -2 0
-127 -95 0
-127 59 0
-127 -36 0
-127 25 0
-127 4 0
-127 18 0
-127 51 0
-127 -23 0
-127 -73 0
127 2 95 -59 36 -25 -4 -18 -51 23 73 0
-128 -99 0
-128 66 0
-128 28 0
-128 -17 0
-128 -85 0
-128 -65 0
-128 13 0
-128 -69 0
-128 3 0
-128 -36 0
128 99 -66 -28 17 85 65 -13 69 -3 36 0
-129 -45 0
-129 97 0
-129 14 0
-129 82 0
-129 -54 0
-129 -57 0
-129 -32 0
-129 -49 0
-129 -28 0
-129 -85 0
129 45 -97 -14 -82 54 57 32 49 28 85 0
-130 -8 0
-130 34 0
-130 61 0
-130 20 0
-130 75 0
-130 -7 0
-130 -13 0
-130 -29 0
-130 12 0
-130 59 0
130 8 -34 -61 -20 -75 7 13 29 -12 -59 0
121 122 123 124 125 126 127 128 129 130 0
-131 -80 0
-131 2 0
-131 -54 0
-131 -10 0
-131 75 0
-131 -43 0
-131 1 0
-131 77 0
-131 -29 0
-131 -35 0
131 80 -2 54 10 -75 43 -1 -77 29 35 0
-132 53 0
-132 91 0
-132 -88 0
-132 -96 0
-132 42 0
-132 -40 0
-132 80 0
-132 -36 0
-132 -23 0
-132 -12 0
132 -53 -91 88 96 -42 40 -80 36 23 12 0
-133 98 0
-133 -27 0
-133 -11 0
-133 76 0
-133 87 0
-133 21 0
-133 94 0
-133 -37 0
-133 -81 0
-133 -41 0
133 -98 27 11 -76 -87 -21 -94 37 81 41 0
-134 72 0
-134 80 0
-134 92 0
-134 51 0
-134 -93 0
-134 -12 0
-134 54 0
-134 -2 0
-134 90 0
-134 -70 0
134 -72 -80 -92 -51 93 12 -54 2 -90 70 0
-135 -87 0
-135 6 0
-135 34 0
-135 60 0
-135 -29 0
-135 7 0
-135 -81 0
-135 -97 0
-135 61 0
-135 -8 0
135 87 -6 -34 -60 29 -7 81 97 -61 8 0
-136 48 0
-136 66 0
-136 -55 0
-136 92 0
-136 2 0
-136 -83 0
-136 45 0
-136 99 0
-136 -37 0
-136 18 0
136 -48 -66 55 -92 -2 83 -45 -99 37 -18 0
-137 -93 0
-137 -18 0
-137 78 0
-137 -55 0
-137 50 0
-137 -58 0
-137 -24 0
-137 2 0
-137 46 0
-137 32 0
137 93 18 -78 55 -50 58 24 -2 -46 -32 0
-138 57 0
-138 96 0
-138 98 0
-138 -92 0
-138 58 0
-138 -81 0
-138 15 0
-138 89 0
-138 35 0
-138 18 0
138 -57 -96 -98 92 -58 81 -15 -89 -35 -18 0
-139 -11 0
-139 -86 0
-139 64 0
-139 32 0
-139 6 0
-139 -63 0
-139 21 0
-139 -71 0
-139 29 0
-139 72 0
139 11 86 -64 -32 -6 63 -21 71 -29 -72 0
-140 -79 0
-140 -75 0
-140 42 0
-140 -8 0
-140 12 0
-140 6 0
-140 -44 0
-140 3 0
-140 78 0
-140 -48 0
140 79 75 -42 8 -12 -6 44 -3 -78 48 0
131 132 133 134 135 136 137 138 139 140 0
-141 96 0
-141 -46 0
-141 -80 0
-141 15 0
-141 -4 0
-141 42 0
-141 -64 0
-141 -97 0
-141 -58 0
-141 69 0
141 -96 46 80 -15 4 -42 64 97 58 -69 0
-142 -11 0
-142 45 0
-142 3 0
-142 51 0
-142 -2 0
-142 99 0
-142 -97 0
-142 72 0
-142 77 0
-142 -95 0
142 11 -45 -3 -51 2 -99 97 -72 -77 95 0
-143 -96 0
-143 39 0
-143 16 0
-143 -58 0
-143 -36 0
-143 -91 0
-143 -55 0
-143 33 0
-143 9 0
-143 21 0
143 96 -39 -16 58 36 91 55 -33 -9 -21 0
-144 -55 0
-144 21 0
-144 26 0
-144 -19 0
-144 82 0
-144 84 0
-144 -17 0
-144 -90 0
-144 54 0
-144 -74 0
144 55 -21 -26 19 -82 -84 17 90 -54 74 0
-145 25 0
-145 -72 0
-145 34 0
-145 69 0
-145 62 0
-145 83 0
-145 -55 0
-145 -35 0
-145 -31 0
-145 -15 0
145 -25 72 -34 -69 -62 -83 55 35 31 15 0
-146 -35 0
-146 52 0
-146 31 0
-146 51 0
-146 -30 0
-146 53 0
-146 8 0
-146 33 0
-146 -95 0
-146 18 0
146 35 -52 -31 -51 30 -53 -8 -33 95 -18 0
-147 -27 0
-147 -9 0
-147 11 0
-147 43 0
-147 13 0
-147 -50 0
-147 42 0
-147 -78 0
-147 94 0
-147 92 0
147 27 9 -11 -43 -13 50 -42 78 -94 -92 0
-148 63 0
-148 -59 0
-148 -62 0
-148 -10 0
-148 84 0
-148 46 0
-148 -98 0
-148 64 0
-148 15 0
-148 76 0
148 -63 59 62 10 -84 -46 98 -64 -15 -76 0
-149 59 0
-149 17 0
-149 81 0
-149 54 0
-149 95 0
-149 -74 0
-149 -15 0
-149 44 0
-149 18 0
-149 -57 0
149 -59 -17 -81 -54 -95 74 15 -44 -18 57 0
-150 -87 0
-150 2 0
-150 -57 0
-150 -11 0
-150 47 0
-150 23 0
-150 -78 0
-150 -51 0
-150 38 0
-150 4 0
150 87 -2 57 11 -47 -23 78 51 -38 -4 0
141 142 143 144 145 146 147 148 149 150 0
-151 -100 0
-151 -73 0
-151 -96 0
-151 97 0
-151 72 0
-151 -87 0
-151 3 0
-151 -10 0
-151 -30 0
-151 40 0
151 100 73 96 -97 -72 87 -3 10 30 -40 0
-152 -49 0
-152 31 0
-152 18 0
-152 -80 0
-152 -92 0
-152 -13 0
-152 -22 0
-152 10 0
-152 2 0
-152 -59 0
152 49 -31 -18 80 92 13 22 -10 -2 59 0
-153 93 0
-153 -74 0
-153 42 0
-153 -33 0
-153 -99 0
-153 -64 0
-153 -1 0
-153 -96 0
-153 76 0
-153 91 0
153 -93 74 -42 33 99 64 1 96 -76 -91 0
-154 62 0
-154 63 0
-154 80 0
-154 -98 0
-154 90 0
-154 96 0
-154 -29 0
-154 77 0
-154 -60 0
-154 48 0
154 -62 -63 -80 98 -90 -96 29 -77 60 -48 0
-155 -28 0
-155 53 0
-155 14 0
-155 -30 0
-155 62 0
-155 -75 0
-155 93 0
-155 -55 0
-155 -4 0
-155 -45 0
155 28 -53 -14 30 -62 75 -93 55 4 45 0
-156 -96 0
-156 33 0
-156 -62 0
-156 -100 0
-156 -13 0
-156 -34 0
-156 -28 0
-156 -90 0
-156 18 0
-156 -21 0
156 96 -33 62 100 13 34 28 90 -18 21 0
-157 -80 0
-157 -49 0
-157 100 0
-157 65 0
-157 41 0
-157 74 0
-157 -88 0
-157 -16 0
-157 62 0
-157 -54 0
157 80 49 -100 -65 -41 -74 88 16 -62 54 0
-158 -8 0
-158 77 0
-158 99 0
-158 -24 0
-158 -2 0
-158 97 0
-158 -27 0
-158 -25 0
-158 61 0
-158 -41 0
158 8 -77 -99 24 2 -97 27 25 -61 41 0
-159 -95 0
-159 25 0
-159 -13 0
-159 94 0
-159 -69 0
-159 72 0
-159 43 0
-159 76 0
-159 -49 0
-159 -2 0
159 95 -25 13 -94 69 -72 -43 -76 49 2 0
-160 -81 0
-160 -95 0
-160 -53 0
-160 -93 0
-160 -46 0
-160 80 0
-160 -75 0
-160 47 0
-160 -44 0
-160 -8 0
160 81 95 53 93 46 -80 75 -47 44 8 0
151 152 153 154 155 156 157 158 159 160 0
-161 4 0
-161 5 0
-161 -53 0
-161 -41 0
-161 33 0
-161 74 0
-161 43 0
-161 -57 0
-161 -19 0
-161 48 0
161 -4 -5 53 41 -33 -74 -43 57 19 -48 0
-162 -33 0
-162 -98 0
-162 -7 0
-162 46 0
-162 -86 0
-162 -50 0
-162 -22 0
-162 35 0
-162 82 0
-162 -39 0
162 33 98 7 -46 86 50 22 -35 -82 39 0
-163 -20 0
-163 -80 0
-163 -87 0
-163 84 0
-163 23 0
-163 -79 0
-163 -10 0
-163 52 0
-163 48 0
-163 96 0
163 20 80 87 -84 -23 79 10 -52 -48 -96 0
-164 -22 0
-164 90 0
-164 33 0
-164 32 0
-164 37 0
-164 39 0
-164 -41 0
-164 -53 0
-164 -1 0
-164 83 0
164 22 -90 -33 -32 -37 -39 41 53 1 -83 0
-165 -55 0
-165 -95 0
-165 -24 0
-165 32 0
-165 -30 0
-165 -5 0
-165 -7 0
-165 -65 0
-165 81 0
-165 -31 0
165 55 95 24 -32 30 5 7 65 -81 31 0
-166 -34 0
-166 39 0
-166 -52 0
-166 -5 0
-166 6 0
-166 -38 0
-166 -69 0
-166 -31 0
-166 89 0
-166 81 0
166 34 -39 52 5 -6 38 69 31 -89 -81 0
-167 -44 0
-167 -59 0
-167 -41 0
-167 -61 0
-167 75 0
-167 5 0
-167 17 0
-167 -66 0
-167 58 0
-167 53 0
167 44 59 41 61 -75 -5 -17 66 -58 -53 0
-168 -54 0
-168 -49 0
-168 -47 0
-168 -3 0
-168 -14 0
-168 -26 0
-168 62 0
-168 66 0
-168 -56 0
-168 36 0
168 54 49 47 3 14 26 -62 -66 56 -36 0
-169 58 0
-169 54 0
-169 -49 0
-169 83 0
-169 30 0
-169 77 0
-169 -24 0
-169 89 0
-169 -100 0
-169 56 0
169 -58 -54 49 -83 -30 -77 24 -89 100 -56 0
-170 7 0
-170 53 0
-170 57 0
-170 27 0
-170 -75 0
-170 -88 0
-170 50 0
-170 -4 0
-170 -24 0
-170 -92 0
170 -7 -53 -57 -27 75 88 -50 4 24 92 0
161 162 163 164 165 166 167 168 169 170 0
-171 -65 0
-171 72 0
-171 3 0
-171 -29 0
-171 -79 0
-171 -7 0
-171 -73 0
-171 -74 0
-171 31 0
-171 -14 0
171 65 -72 -3 29 79 7 73 74 -31 14 0
-172 36 0
-172 97 0
-172 -41 0
-172 63 0
-172 -15 0
-172 75 0
-172 56 0
-172 -55 0
-172 -58 0
-172 49 0
172 -36 -97 41 -63 15 -75 -56 55 58 -49 0
-173 38 0
-173 -92 0
-173 90 0
-173 -42 0
-173 26 0
-173 -96 0
-173 -2 0
-173 100 0
-173 -93 0
-173 -99 0
173 -38 92 -90 42 -26 96 2 -100 93 99 0
-174 -31 0
-174 19 0
-174 96 0
-174 32 0
-174 48 0
-174 -24 0
-174 -51 0
-174 93 0
-174 42 0
-174 66 0
174 31 -19 -96 -32 -48 24 51 -93 -42 -66 0
-175 40 0
-175 -94 0
-175 28 0
-175 64 0
-175 100 0
-175 -45 0
-175 -35 0
-175 -80 0
-175 -81 0
-175 60 0
175 -40 94 -28 -64 -100 45 35 80 81 -60 0
-176 -63 0
-176 -29 0
-176 90 0
-176 33 0
-176 72 0
-176 14 0
-176 -98 0
-176 -96 0
-176 -41 0
-176 -9 0
176 63 29 -90 -33 -72 -14 98 96 41 9 0
-177 16 0
-177 -9 0
-177 64 0
-177 -48 0
-177 83 0
-177 -19 0
-177 24 0
-177 42 0
-177 75 0
-177 -61 0
177 -16 9 -64 48 -83 19 -24 -42 -75 61 0
-178 -65 0
-178 22 0
-178 94 0
-178 -28 0
-178 -99 0
-178 26 0
-178 -32 0
-178 70 0
-178 -18 0
-178 90 0
178 65 -22 -94 28 99 -26 32 -70 18 -90 0
-179 7 0
-179 24 0
-179 -71 0
-179 6 0
-179 -39 0
-179 8 0
-179 33 0
-179 15 0
-179 -30 0
-179 63 0
179 -7 -24 71 -6 39 -8 -33 -15 30 -63 0
-180 36 0
-180 53 0
-180 -97 0
-180 -88 0
-180 1 0
-180 5 0
-180 48 0
-180 67 0
-180 23 0
-180 17 0
180 -36 -53 97 88 -1 -5 -48 -67 -23 -17 0
171 172 173 174 175 176 177 178 179 180 0
-181 53 0
-181 -61 0
-181 7 0
-181 -62 0
-181 -67 0
-181 58 0
-181 16 0
-181 34 0
-181 -14 0
-181 38 0
181 -53 61 -7 62 67 -58 -16 -34 14 -38 0
-182 63 0
-182 70 0
-182 80 0
-182 61 0
-182 -76 0
-182 -77 0
-182 -26 0
-182 -91 0
-182 -87 0
-182 -34 0
182 -63 -70 -80 -61 76 77 26 91 87 34 0
-183 -42 0
-183 -99 0
-183 -36 0
-183 43 0
-183 -48 0
-183 84 0
-183 -35 0
-183 -31 0
-183 -70 0
-183 -7 0
183 42 99 36 -43 48 -84 35 31 70 7 0
-184 -100 0
-184 39 0
-184 48 0
-184 50 0
-184 -44 0
-184 32 0
-184 -27 0
-184 -58 0
-184 -66 0
-184 -11 0
184 100 -39 -48 -50 44 -32 27 58 66 11 0
-185 -97 0
-185 89 0
-185 -74 0
-185 47 0
-185 87 0
-185 -17 0
-185 12 0
-185 82 0
-185 -45 0
-185 -91 0
185 97 -89 74 -47 -87 17 -12 -82 45 91 0
-186 -98 0
-186 20 0
-186 -34 0
-186 43 0
-186 49 0
-186 50 0
-186 -72 0
-186 -38 0
-186 36 0
-186 7 0
186 98 -20 34 -43 -49 -50 72 38 -36 -7 0
-187 71 0
-187 3 0
-187 72 0
-187 -42 0
-187 59 0
-187 -13 0
-187 40 0
-187 34 0
-187 -81 0
-187 -24 0
187 -71 -3 -72 42 -59 13 -40 -34 81 24 0
-188 -83 0
-188 -56 0
-188 -62 0
-188 -71 0
-188 -100 0
-188 -72 0
-188 31 0
-188 -34 0
-188 64 0
-188 -75 0
188 83 56 62 71 100 72 -31 34 -64 75 0
-189 -5 0
-189 -72 0
-189 -88 0
-189 -10 0
-189 74 0
-189 18 0
-189 86 0
-189 97 0
-189 -1 0
-189 26 0
189 5 72 88 10 -74 -18 -86 -97 1 -26 0
-190 -36 0
-190 -40 0
-190 62 0
-190 -93 0
-190 -12 0
-190 89 0
-190 83 0
-190 -2 0
-190 24 0
-190 71 0
190 36 40 -62 93 12 -89 -83 2 -24 -71 0
181 182 183 184 185 186 187 188 189 190 0
-191 -13 0
-191 -36 0
-191 24 0
-191 -57 0
-191 -40 0
-191 -86 0
-191 -35 0
-191 -78 0
-191 66 0
-191 -6 0
191 13 36 -24 57 40 86 35 78 -66 6 0
-192 -98 0
-192 73 0
-192 -81 0
-192 -41 0
-192 -93 0
-192 63 0
-192 80 0
-192 2 0
-192 -88 0
-192 -99 0
192 98 -73 81 41 93 -63 -80 -2 88 99 0
-193 -35 0
-193 17 0
-193 -47 0
-193 -44 0
-193 31 0
-193 -29 0
-193 98 0
-193 36 0
-193 22 0
-193 86 0
193 35 -17 47 44 -31 29 -98 -36 -22 -86 0
-194 -82 0
-194 43 0
-194 -25 0
-194 99 0
-194 -30 0
-194 -5 0
-194 -15 0
-194 37 0
-194 78 0
-194 -47 0
194 82 -43 25 -99 30 5 15 -37 -78 47 0
-195 -64 0
-195 72 0
-195 -86 0
-195 -53 0
-195 -19 0
-195 -17 0
-195 4 0
-195 -96 0
-195 -31 0
-195 -34 0
195 64 -72 86 53 19 17 -4 96 31 34 0
-196 93 0
-196 46 0
-196 -42 0
-196 7 0
-196 75 0
-196 53 0
-196 -24 0
-196 -28 0
-196 62 0
-196 -23 0
196 -93 -46 42 -7 -75 -53 24 28 -62 23 0
-197 1 0
-197 29 0
-197 98 0
-197 84 0
-197 6 0
-197 96 0
-197 30 0
-197 -93 0
-197 36 0
-197 -37 0
197 -1 -29 -98 -84 -6 -96 -30 93 -36 37 0
-198 -84 0
-198 35 0
-198 -36 0
-198 -25 0
-198 86 0
-198 -34 0
-198 -67 0
-198 2 0
-198 61 0
-198 -14 0
198 84 -35 36 25 -86 34 67 -2 -61 14 0
-199 -94 0
-199 24 0
-199 -85 0
-199 16 0
-199 99 0
-199 3 0
-199 -83 0
-199 -25 0
-199 -66 0
-199 18 0
199 94 -24 85 -16 -99 -3 83 25 66 -18 0
-200 5 0
-200 -97 0
-200 9 0
-200 89 0
-200 45 0
-200 -33 0
-200 -48 0
-200 -35 0
-200 38 0
-200 58 0
200 -5 97 -9 -89 -45 33 48 35 -38 -58 0
191 192 193 194 195 196 197 198 199 200 0
